
Gurobi 8.1.1 (win64, Python) logging started 10/14/19 13:42:13

Academic license - for non-commercial use only

Gurobi 8.1.1 (win64, Python) logging started 10/14/19 13:43:56

Academic license - for non-commercial use only

Gurobi 8.1.1 (win64, Python) logging started 10/14/19 13:46:52

Academic license - for non-commercial use only

Gurobi 8.1.1 (win64, Python) logging started 10/14/19 13:49:01

Academic license - for non-commercial use only

Gurobi 8.1.1 (win64, Python) logging started 10/14/19 13:50:03

Academic license - for non-commercial use only

Gurobi 8.1.1 (win64, Python) logging started 10/14/19 13:51:20

Academic license - for non-commercial use only
